CUSTOMERS : 10
VEHICLES : 7
0 205 165 89 185 190 134 301 269 259 277 
205 0 57 117 105 391 338 187 226 199 466 
165 57 0 80 59 345 298 167 257 232 437 
89 117 80 0 115 275 222 234 235 217 358 
185 105 59 115 0 345 311 120 315 291 461 
190 391 345 275 345 0 80 443 432 429 192 
134 338 298 222 311 80 0 420 355 354 163 
301 187 167 234 120 443 420 0 413 386 576 
269 226 257 235 315 432 355 413 0 29 406 
259 199 232 217 291 429 354 386 29 0 417 
277 466 437 358 461 192 163 576 406 417 0 
